n = 9;
k = 117;
price = [22, 16, 17, 18, 17, 20, 23, 23, 16];
m = 20;
buy = [6, 3, 5, 6, 4, 2, 2, 4, 2, 4, 6, 6, 3, 6, 5, 5, 2, 2, 4, 3];
free = [3, 1, 2, 2, 2, 1, 1, 2, 1, 2, 3, 2, 1, 2, 2, 2, 1, 1, 2, 1];
